20
4	65	103	28	82
3	65	65	48	53
5	8	61	65	16
5	43	3	30	1
7	16	44	40	100
2	70	83	98	85
2	2	99	92	69
10	41	47	7	79
2	33	6	58	56
3	64	1	43	84
2	73	36	30	38
3	0	16	66	67
6	2	40	1	89
3	48	74	62	19
4	77	43	16	25
3	66	49	95	100
1	56	22	18	61
5	27	21	55	87
9	50	29	5	55
5	68	95	9	31
